%chk=D:\Download\trae-research-code\Adsorption-ensemble-Pipline\C6.chk
# hf/3-21g geom=connectivity

Title Card Required

0 1
 C                 -1.52614356   -1.76453957   -0.07298855
 C                  0.01312622   -1.75055415   -0.02767892
 C                  0.51419117   -0.29455255   -0.05203554
 C                 -2.08253654   -1.00968086    1.14857405
 H                  0.34789159   -2.22799474    0.86947359
 H                 -1.86090894   -1.28709898   -0.97014106
 H                 -3.02054918   -0.49939317    1.08046559
 H                  0.17942579    0.18288804   -0.94918805
 O                  0.42307279    1.81230765    1.14691021
 H                  0.07623041    2.28286892    1.90840378
 O                  1.94351310   -0.28156609   -0.00996231
 H                  2.29035548   -0.75212736   -0.77145588
 O                  0.52977684   -2.45149438   -1.16198705
 H                  0.21742466   -3.35913174   -1.14680371
 O                 -1.99141816   -3.11654106   -0.05037169
 H                 -2.95096295   -3.12525924   -0.07861665
 O                 -1.43401609   -0.99298994    2.22686585
 C                 -0.04220181    0.46030616    1.16952706
 H                  0.25992294   -0.20582439    1.95048207
 H                 -1.07946983    0.69676151    1.28382455

 1 2 1.0 4 1.0 6 1.0 15 1.0
 2 3 1.0 5 1.0 13 1.0
 3 8 1.0 11 1.0 18 1.0
 4 7 1.0 17 2.0
 5
 6
 7
 8
 9 10 1.0 18 1.0
 10
 11 12 1.0
 12
 13 14 1.0
 14
 15 16 1.0
 16
 17
 18 19 1.0 20 1.0
 19
 20

