%chk=C:\Users\user\Downloads\xtb\C6H14.chk
# hf/3-21g geom=connectivity

Title Card Required

0 1
 C                 -1.61812289   -0.85760517    0.00000000
 C                 -0.11097289   -0.85760517    0.00000000
 H                 -2.00793589    0.18875483    0.00000000
 H                 -2.01165489   -1.38079617   -0.90491000
 H                 -2.01174789   -1.38091017    0.90478800
 C                  0.44877411   -2.25693317   -0.00007200
 H                  0.26309411   -0.30489017   -0.90236800
 H                  0.26316611   -0.30494517    0.90236400
 H                  0.10909611   -2.81667417    0.90480900
 H                  0.10901911   -2.81661417   -0.90496300
 C                  1.98833719   -2.22025194   -0.00015199
 C                  2.54797899   -3.61964545   -0.00020447
 H                  2.32804096   -1.66059757    0.90474949
 H                  2.32801753   -1.66043892   -0.90494851
 C                  4.05510723   -3.61976745   -0.00021138
 H                  2.17372888   -4.17221943    0.90217397
 H                  2.17371220   -4.17223596   -0.90255803
 H                  4.44491196   -4.66610526   -0.00019112
 H                  4.44865035   -3.09651480   -0.90510432
 H                  4.44866080   -3.09649556    0.90466769

 1 2 1.0 3 1.0 4 1.0 5 1.0
 2 6 1.0 7 1.0 8 1.0
 3
 4
 5
 6 9 1.0 10 1.0 11 1.0
 7
 8
 9
 10
 11 12 1.0 13 1.0 14 1.0
 12 15 1.0 16 1.0 17 1.0
 13
 14
 15 18 1.0 19 1.0 20 1.0
 16
 17
 18
 19
 20

