%chk=C:\Users\user\Downloads\xtb\mCNB.chk
# hf/3-21g geom=connectivity

Title Card Required

0 1
 C                 -1.84466010    0.04854369    0.00000000
 C                 -0.44950010    0.04854369    0.00000000
 C                  0.24803790    1.25629469    0.00000000
 C                 -0.44961610    2.46480369   -0.00119900
 C                 -1.84444110    2.46472569   -0.00167800
 C                 -2.54204210    1.25651969   -0.00068200
 H                 -2.39441910   -0.90377331    0.00045000
 H                  1.34771790    1.25637469    0.00063400
 H                  0.10058390    3.41694669   -0.00125800
 H                 -2.39456310    3.41700669   -0.00263100
 N                 -4.01204206    1.25676433   -0.00092263
 O                 -4.58218385    1.25614536   -1.05607986
 O                 -4.58251369    1.25757204    1.05405141
 Cl                 0.42998830   -1.47595483    0.00210466

 1 2 1.5 6 1.5 7 1.0
 2 3 1.5 14 1.0
 3 4 1.5 8 1.0
 4 5 1.5 9 1.0
 5 6 1.5 10 1.0
 6 11 1.0
 7
 8
 9
 10
 11 12 1.5 13 1.5
 12
 13
 14

