%chk=C:\Users\user\Downloads\xtb\oCNB.chk
# hf/3-21g geom=connectivity

Title Card Required

0 1
 C                 -2.07119730   -0.08090615    0.00000000
 C                 -0.67603730   -0.08090615    0.00000000
 C                  0.02150070    1.12684485    0.00000000
 C                 -0.67615330    2.33535385   -0.00119900
 C                 -2.07097830    2.33527585   -0.00167800
 C                 -2.76857930    1.12706985   -0.00068200
 H                 -2.62095630   -1.03322315    0.00045000
 H                 -0.12652930   -1.03341915    0.00131500
 H                 -2.62110030    3.28755685   -0.00263100
 H                 -3.86818330    1.12725285   -0.00086200
 N                  1.49150045    1.12695179    0.00084750
 O                  2.06120644    1.12757413    1.05624010
 O                  2.06240774    1.12641135   -1.05389102
 Cl                 0.20442278    3.85922581   -0.00129343

 1 2 1.5 6 1.5 7 1.0
 2 3 1.5 8 1.0
 3 4 1.5 11 1.0
 4 5 1.5 14 1.0
 5 6 1.5 9 1.0
 6 10 1.0
 7
 8
 9
 10
 11 12 1.5 13 1.5
 12
 13
 14

