%chk=C:\Users\user\Downloads\xtb\pCNB.chk
# hf/3-21g geom=connectivity

Title Card Required

0 1
 C                  0.64724916   -1.14886730    0.00000000
 C                  2.04240916   -1.14886730    0.00000000
 C                  2.73994716    0.05888370    0.00000000
 C                  2.04229316    1.26739270   -0.00119900
 C                  0.64746816    1.26731470   -0.00167800
 C                 -0.05013284    0.05910870   -0.00068200
 H                  0.09749016   -2.10118430    0.00045000
 H                  2.59191716   -2.10138030    0.00131500
 H                  2.59249316    2.21953570   -0.00125800
 H                  0.09734616    2.21959570   -0.00263100
 Cl                 4.49994686    0.05901174    0.00101470
 N                 -1.52013280    0.05935335   -0.00092263
 O                 -2.09027460    0.05873437   -1.05607986
 O                 -2.09060444    0.06016106    1.05405141

 1 2 1.5 6 1.5 7 1.0
 2 3 1.5 8 1.0
 3 4 1.5 11 1.0
 4 5 1.5 9 1.0
 5 6 1.5 10 1.0
 6 12 1.0
 7
 8
 9
 10
 11
 12 13 1.5 14 1.5
 13
 14

