%chk=C:\Users\user\Downloads\xtb\Phe.chk
# hf/3-21g geom=connectivity

Title Card Required

0 1
 C                 -0.64724916   -0.08090615    0.00000000
 C                  0.74791084   -0.08090615    0.00000000
 C                  1.44544884    1.12684485    0.00000000
 C                  0.74779484    2.33535385   -0.00119900
 C                 -0.64703016    2.33527585   -0.00167800
 C                 -1.34463116    1.12706985   -0.00068200
 H                 -1.19700816   -1.03322315    0.00045000
 H                  1.29741884   -1.03341915    0.00131500
 H                  1.29799484    3.28749685   -0.00125800
 H                 -1.19715216    3.28755685   -0.00263100
 H                 -2.44423516    1.12725285   -0.00086200
 C                  2.98544858    1.12695688    0.00088786
 H                  3.34269553    1.13937090   -1.00763607
 H                  3.34175480    1.99437423    0.51618683
 C                  3.49846461   -0.13923048    0.71165091
 H                  2.97734122   -0.26430189    1.63776513
 N                  3.26400647   -1.31085511   -0.14463473
 H                  3.97724707   -1.36084187   -0.84376932
 H                  3.28499422   -2.14074819    0.41289284
 C                  5.00713126    0.00200830    0.98656281
 O                  5.92063339    0.34148392    0.23567535
 O                  5.32794192   -0.30671330    2.26842921
 H                  6.28311405   -0.20958522    2.41462497

 1 2 1.5 6 1.5 7 1.0
 2 3 1.5 8 1.0
 3 4 1.5 12 1.0
 4 5 1.5 9 1.0
 5 6 1.5 10 1.0
 6 11 1.0
 7
 8
 9
 10
 11
 12 13 1.0 14 1.0 15 1.0
 13
 14
 15 16 1.0 17 1.0 20 1.0
 16
 17 18 1.0 19 1.0
 18
 19
 20 21 2.0 22 1.0
 21
 22 23 1.0
 23

